120
150
58
55
42
53
56
45
49
40
52
60
50
40
50
57
43
60
44
44
40
58
53
40
58
44
48
40
40
40
54
52
44
53
44
53
45
60
45
46
48
56
40
52
60
40
40
58
43
49
49
45
56
58
49
43
49
45
56
40
52
59
47
44
49
53
48
47
53
50
58
43
47
40
40
40
51
44
56
45
49
45
50
55
60
46
44
40
40
40
51
49
50
40
52
60
46
44
40
40
40
60
46
44
51
55
44
40
40
40
47
46
57
40
51
59
54
42
53
52
54
42
